File : Instances/p68
Used 67s
22967

0 0 0 0 1 0 1 1 0 0 1 0 1 1 1 0 1 1 0 0 1 1 0 0 0 0 0 1 1 0 
7 6 21 27 21 12 21 27 27 28 4 28 13 13 28 7 13 20 27 27 27 16 10 27 10 27 27 14 4 21 6 6 4 16 27 6 20 20 16 16 7 20 6 4 20 6 13 21 14 14 27 16 21 16 20 6 7 20 27 7 4 17 7 20 13 12 10 14 28 12 7 12 6 20 10 10 20 10 20 16 10 17 20 7 4 13 6 21 27 7 28 6 7 7 21 13 28 6 17 28 28 21 12 7 4 27 4 27 27 13 14 4 27 12 12 20 28 7 17 20 14 12 17 6 4 16 21 12 14 17 28 21 12 20 13 20 13 13 28 10 12 27 12 12 7 10 16 21 27 7 27 17 10 17 13 28 21 16 13 13 13 27 10 21 10 27 10 4 13 21 13 20 28 14 4 21 27 10 4 10 21 21 21 6 12 20 28 10 17 21 21 21 6 4 7 12 7 21 10 6 
